(set-logic QF_SLIA)
(declare-fun var0 () String)
(assert (not (str.in_re var0 (re.++ ((_ re.loop 13 26) (re.++ (re.union (str.to_re "&") (re.union (str.to_re "TM") (re.union (str.to_re "3") (str.to_re "V~")))) (re.++ (re.union (str.to_re "OrB") (re.union (str.to_re "9") (re.union (str.to_re "Sz") (str.to_re "2J>")))) (re.++ (re.union (str.to_re "/0N") (re.union (str.to_re "\\w") (re.union (str.to_re "S") (str.to_re "7.!")))) (re.union (str.to_re ">") (re.union (str.to_re "m") (re.union (str.to_re "8n") (str.to_re "I%J")))))))) (re.++ ((_ re.loop 7 380) (re.++ (re.union (str.to_re "M%") (re.union (str.to_re "Se") (re.union (str.to_re "Z") (str.to_re ";")))) (re.++ (re.union (str.to_re ".-d") (re.union (str.to_re "Dg+") (re.union (str.to_re "~G") (str.to_re "df")))) (re.++ (re.union (str.to_re "Zq>") (re.union (str.to_re "lX>") (re.union (str.to_re "^X") (str.to_re "L")))) (re.union (str.to_re "oI5") (re.union (str.to_re "Nr") (re.union (str.to_re "=L") (str.to_re "?e\u0022")))))))) (re.++ ((_ re.loop 16 21) (re.++ (re.union (str.to_re "K") (re.union (str.to_re "KxL") (re.union (str.to_re ".") (str.to_re "',=")))) (re.++ (re.union (str.to_re "p") (re.union (str.to_re "I6f") (re.union (str.to_re "F2") (str.to_re "1")))) (re.++ (re.union (str.to_re "D") (re.union (str.to_re "oym") (re.union (str.to_re "Y1") (str.to_re "]R4")))) (re.union (str.to_re "tu^") (re.union (str.to_re ":6U") (re.union (str.to_re "xM~") (str.to_re "c-}")))))))) ((_ re.loop 12 911) (re.++ (re.union (str.to_re "m") (re.union (str.to_re "<I") (re.union (str.to_re "/") (str.to_re "o")))) (re.++ (re.union (str.to_re "!EJ") (re.union (str.to_re "JhU") (re.union (str.to_re "4") (str.to_re ")(")))) (re.++ (re.union (str.to_re "/O") (re.union (str.to_re "1:") (re.union (str.to_re "-&D") (str.to_re "+R=")))) (re.union (str.to_re "{\u0022") (re.union (str.to_re "Q`1") (re.union (str.to_re "6iu") (str.to_re ";J["))))))))))))))
(assert (not (str.in_re var0 (re.++ ((_ re.loop 3 431) (re.++ (re.union (str.to_re "!t") (re.union (str.to_re "d=") (re.union (str.to_re ";") (str.to_re "I")))) (re.++ (re.union (str.to_re "E") (re.union (str.to_re "u@<") (re.union (str.to_re "S") (str.to_re "}F")))) (re.++ (re.union (str.to_re "vpW") (re.union (str.to_re "<") (re.union (str.to_re "G6.") (str.to_re "VET")))) (re.union (str.to_re "H_F") (re.union (str.to_re "F3c") (re.union (str.to_re "\u0022") (str.to_re "/U")))))))) (re.++ ((_ re.loop 12 365) (re.++ (re.union (str.to_re "K") (re.union (str.to_re "uj") (re.union (str.to_re "U") (str.to_re ":~")))) (re.++ (re.union (str.to_re "P") (re.union (str.to_re "y") (re.union (str.to_re "M") (str.to_re "t~i")))) (re.++ (re.union (str.to_re "^,D") (re.union (str.to_re "uH") (re.union (str.to_re "%") (str.to_re "g*")))) (re.union (str.to_re "Nm") (re.union (str.to_re "CH") (re.union (str.to_re "g&") (str.to_re "=")))))))) (re.++ ((_ re.loop 4 673) (re.++ (re.union (str.to_re "b9") (re.union (str.to_re ",") (re.union (str.to_re "4+") (str.to_re "`")))) (re.++ (re.union (str.to_re "83") (re.union (str.to_re "af") (re.union (str.to_re "q") (str.to_re "%V")))) (re.++ (re.union (str.to_re "kI") (re.union (str.to_re "%") (re.union (str.to_re "|") (str.to_re "j")))) (re.union (str.to_re "D!") (re.union (str.to_re "'U") (re.union (str.to_re ">") (str.to_re "J")))))))) ((_ re.loop 1 517) (re.++ (re.union (str.to_re "i;") (re.union (str.to_re "=_") (re.union (str.to_re "BG") (str.to_re "+")))) (re.++ (re.union (str.to_re "7") (re.union (str.to_re "%-T") (re.union (str.to_re "^z") (str.to_re "=")))) (re.++ (re.union (str.to_re "^1") (re.union (str.to_re "Z!X") (re.union (str.to_re "^76") (str.to_re "'.9")))) (re.union (str.to_re "O8") (re.union (str.to_re "o<") (re.union (str.to_re "]*") (str.to_re "d,"))))))))))))))
(assert (not (str.in_re var0 (re.++ (re.* re.allchar) (re.++ (re.union (str.to_re "<") (re.union (str.to_re ">") (re.union (str.to_re "'") (re.union (str.to_re "\u0022") (str.to_re "&"))))) (re.* re.allchar))))))
(assert (<= 50 (str.len var0)))
(check-sat)
(get-model)
